1 -1 0
1 -2 0
1 -3 0
1 -4 0
1 -5 0
1 -6 0
1 -7 0
1 -8 0
1 -9 0
1 -10 0
1 -11 0
1 -12 0
1 -13 0
1 -14 0
1 -15 0
1 -16 0
1 -17 0
1 -18 0
1 -19 0
1 -20 0
1 -21 0
1 -22 0
1 -23 0
1 -24 0
1 -25 0
1 -26 0
1 -27 0
1 -28 0
1 -29 0
1 -30 0
1 -31 0
1 -32 0
1 -33 0
1 -34 0
1 -35 0
1 -36 0
1 -37 0
1 -38 0
1 -39 0
1 -40 0
1 -41 0
1 -42 0
1 -43 0
1 -44 0
1 -45 0
1 -46 0
1 -47 0
1 -48 0
1 -49 0
1 -50 0
1 -51 0
1 -52 0
1 -53 0
1 -54 0
1 -55 0
1 -56 0
1 -57 0
1 -58 0
1 -59 0
1 -60 0
1 -61 0
1 -62 0
1 -63 0
1 -64 0
1 -65 0
1 -66 0
1 -67 0
1 -68 0
1 -69 0
1 -70 0
1 -71 0
1 -72 0
1 -73 0
1 -74 0
1 -75 0
1 -76 0
1 -77 0
1 -78 0
1 -79 0
1 -80 0
1 -81 0
1 -82 0
1 -83 0
1 -84 0
1 -85 0
1 -86 0
1 -87 0
1 -88 0
1 -89 0
1 -90 0
1 -91 0
1 -92 0
1 -93 0
1 -94 0
1 -95 0
1 -96 0
1 -97 0
1 -98 0
1 -99 0
1 -100 0
1 -101 0
1 -102 0
1 -103 0
1 -104 0
1 -105 0
1 -106 0
1 -107 0
1 -108 0
1 -109 0
1 -110 0
1 -111 0
1 -112 0
1 -113 0
1 -114 0
1 -115 0
1 -116 0
1 -117 0
1 -118 0
1 -119 0
1 -120 0
1 -121 0
1 -122 0
1 -123 0
1 -124 0
1 -125 0
1 -126 0
1 -127 0
1 -128 0
1 -129 0
1 -130 0
1 -131 0
1 -132 0
1 -133 0
1 -134 0
1 -135 0
1 -136 0
1 -137 0
1 -138 0
1 -139 0
1 -140 0
1 -141 0
1 -142 0
1 -143 0
1 -144 0
1 -145 0
1 -146 0
1 -147 0
1 -148 0
1 -149 0
1 -150 0
1 -151 0
1 -152 0
1 -153 0
1 -154 0
1 -155 0
1 -156 0
1 -157 0
1 -158 0
1 -159 0
1 -160 0
1 -161 0
1 -162 0
1 -163 0
1 -164 0
1 -165 0
1 -166 0
1 -167 0
1 -168 0
1 -169 0
1 -170 0
1 -171 0
1 -172 0
1 -173 0
1 -174 0
1 -175 0
1 -176 0
1 -177 0
1 -178 0
1 -179 0
1 -180 0
1 -181 0
1 -182 0
1 -183 0
1 -184 0
1 -185 0
1 -186 0
1 -187 0
1 -188 0
1 -189 0
1 -190 0
1 -191 0
1 -192 0
1 -193 0
1 -194 0
1 -195 0
1 -196 0
1 -197 0
1 -198 0
1 -199 0
1 -200 0
1 -201 0
1 -202 0
1 -203 0
1 -204 0
1 -205 0
1 -206 0
1 -207 0
1 -208 0
1 -209 0
1 -210 0
1 -211 0
1 -212 0
1 -213 0
1 -214 0
1 -215 0
1 -216 0
1 -217 0
1 -218 0
1 -219 0
1 -220 0
1 -221 0
1 -222 0
1 -223 0
1 -224 0
1 -225 0
1 -226 0
1 -227 0
1 -228 0
1 -229 0
1 -230 0
1 -231 0
1 -232 0
1 -233 0
1 -234 0
1 -235 0
1 -236 0
1 -237 0
1 -238 0
1 -239 0
1 -240 0
1 -241 0
1 -242 0
1 -243 0
1 -244 0
1 -245 0
1 -246 0
1 -247 0
1 -248 0
1 -249 0
1 -250 0
1 -251 0
1 -252 0
1 -253 0
1 -254 0
1 -255 0
1 -256 0
1 -257 0
1 -258 0
1 -259 0
1 -260 0
1 -261 0
1 -262 0
1 -263 0
1 -264 0
1 -265 0
1 -266 0
1 -267 0
1 -268 0
1 -269 0
1 -270 0
1 -271 0
1 -272 0
1 -273 0
1 -274 0
1 -275 0
1 -276 0
1 -277 0
1 -278 0
1 -279 0
1 -280 0
1 -281 0
1 -282 0
1 -283 0
1 -284 0
1 -285 0
1 -286 0
1 -287 0
1 -288 0
1 -289 0
1 -290 0
1 -291 0
1 -292 0
1 -293 0
1 -294 0
1 -295 0
1 -296 0
1 -297 0
1 -298 0
1 -299 0
1 -300 0
1 -301 0
1 -302 0
1 -303 0
1 -304 0
1 -305 0
1 -306 0
1 -307 0
1 -308 0
1 -309 0
1 -310 0
1 -311 0
1 -312 0
1 -313 0
1 -314 0
1 -315 0
1 -316 0
1 -317 0
1 -318 0
1 -319 0
1 -320 0
1 -321 0
1 -322 0
1 -323 0
1 -324 0
1 -325 0
1 -326 0
1 -327 0
1 -328 0
1 -329 0
1 -330 0
1 -331 0
1 -332 0
1 -333 0
1 -334 0
1 -335 0
1 -336 0
1 -337 0
1 -338 0
1 -339 0
1 -340 0
1 -341 0
1 -342 0
1 -343 0
1 -344 0
1 -345 0
1 -346 0
1 -347 0
1 -348 0
1 -349 0
1 -350 0
1 -351 0
1 -352 0
1 -353 0
1 -354 0
1 -355 0
1 -356 0
1 -357 0
1 -358 0
1 -359 0
1 -360 0
1 -361 0
1 -362 0
1 -363 0
1 -364 0
1 -365 0
1 -366 0
1 -367 0
1 -368 0
1 -369 0
1 -370 0
1 -371 0
1 -372 0
1 -373 0
1 -374 0
1 -375 0
1 -376 0
1 -377 0
1 -378 0
1 -379 0
1 -380 0
1 -381 0
1 -382 0
1 -383 0
1 -384 0
1 -385 0
1 -386 0
1 -387 0
1 -388 0
1 -389 0
1 -390 0
1 -391 0
1 -392 0
1 -393 0
1 -394 0
1 -395 0
1 -396 0
1 -397 0
1 -398 0
1 -399 0
1 -400 0
1 -401 0
1 -402 0
1 -403 0
1 -404 0
1 -405 0
1 -406 0
1 -407 0
1 -408 0
1 -409 0
1 -410 0
1 -411 0
1 -412 0
1 -413 0
1 -414 0
1 -415 0
1 -416 0
1 -417 0
1 -418 0
1 -419 0
1 -420 0
1 -421 0
1 -422 0
1 -423 0
1 -424 0
1 -425 0
1 -426 0
1 -427 0
1 -428 0
1 -429 0
1 -430 0
1 -431 0
1 -432 0
1 -433 0
1 -434 0
1 -435 0
1 -436 0
1 -437 0
1 -438 0
1 -439 0
1 -440 0
1 -441 0
1 -442 0
1 -443 0
1 -444 0
1 -445 0
1 -446 0
1 -447 0
1 -448 0
1 -449 0
1 -450 0
1 -451 0
1 -452 0
1 -453 0
1 -454 0
1 -455 0
1 -456 0
1 -457 0
1 -458 0
1 -459 0
1 -460 0
1 -461 0
1 -462 0
1 -463 0
1 -464 0
1 -465 0
1 -466 0
1 -467 0
1 -468 0
1 -469 0
1 -470 0
1 -471 0
1 -472 0
1 -473 0
1 -474 0
1 -475 0
1 -476 0
1 -477 0
1 -478 0
1 -479 0
1 -480 0
1 -481 0
1 -482 0
1 -483 0
1 -484 0
1 -485 0
1 -486 0
1 -487 0
1 -488 0
1 -489 0
1 -490 0
1 -491 0
1 -492 0
1 -493 0
1 -494 0
1 -495 0
1 -496 0
1 -497 0
1 -498 0
1 -499 0
1 -500 0
1 -501 0
1 -502 0
1 -503 0
1 -504 0
1 -505 0
1 -506 0
1 -507 0
1 -508 0
1 -509 0
1 -510 0
1 -511 0
1 -512 0
1 -513 0
1 -514 0
1 -515 0
1 -516 0
1 -517 0
1 -518 0
1 -519 0
1 -520 0
1 -521 0
1 -522 0
1 -523 0
1 -524 0
1 -525 0
1 -526 0
1 -527 0
1 -528 0
1 -529 0
1 -530 0
1 -531 0
1 -532 0
1 -533 0
1 -534 0
1 -535 0
1 -536 0
1 -537 0
1 -538 0
1 -539 0
1 -540 0
1 -541 0
1 -542 0
1 -543 0
1 -544 0
1 -545 0
1 -546 0
1 -547 0
1 -548 0
1 -549 0
1 -550 0
1 -551 0
1 -552 0
1 -553 0
1 -554 0
1 -555 0
1 -556 0
1 -557 0
1 -558 0
1 -559 0
1 -560 0
1 -561 0
1 -562 0
1 -563 0
1 -564 0
1 -565 0
1 -566 0
1 -567 0
1 -568 0
1 -569 0
1 -570 0
1 -571 0
1 -572 0
1 -573 0
1 -574 0
1 -575 0
1 -576 0
1 -577 0
1 -578 0
1 -579 0
1 -580 0
1 -581 0
1 -582 0
1 -583 0
1 -584 0
1 -585 0
1 -586 0
1 -587 0
1 -588 0
1 -589 0
1 -590 0
1 -591 0
1 -592 0
1 -593 0
1 -594 0
1 -595 0
1 -596 0
1 -597 0
1 -598 0
1 -599 0
1 -600 0
1 -601 0
1 -602 0
1 -603 0
1 -604 0
1 -605 0
1 -606 0
1 -607 0
1 -608 0
1 -609 0
1 -610 0
1 -611 0
1 -612 0
1 -613 0
1 -614 0
1 -615 0
1 -616 0
1 -617 0
1 -618 0
1 -619 0
1 -620 0
1 -621 0
1 -622 0
1 -623 0
1 -624 0
1 -625 0
1 -626 0
1 -627 0
1 -628 0
1 -629 0
1 -630 0
1 -631 0
1 -632 0
1 -633 0
1 -634 0
1 -635 0
1 -636 0
1 -637 0
1 -638 0
1 -639 0
1 -640 0
1 -641 0
1 -642 0
1 -643 0
1 -644 0
1 -645 0
1 -646 0
1 -647 0
1 -648 0
1 -649 0
1 -650 0
1 -651 0
1 -652 0
1 -653 0
1 -654 0
1 -655 0
1 -656 0
1 -657 0
1 -658 0
1 -659 0
1 -660 0
1 -661 0
1 -662 0
1 -663 0
1 -664 0
1 -665 0
1 -666 0
1 -667 0
1 -668 0
1 -669 0
1 -670 0
1 -671 0
1 -672 0
1 -673 0
1 -674 0
1 -675 0
1 -676 0
1 -677 0
1 -678 0
1 -679 0
1 -680 0
1 -681 0
1 -682 0
1 -683 0
1 -684 0
1 -685 0
1 -686 0
1 -687 0
1 -688 0
1 -689 0
1 -690 0
1 -691 0
1 -692 0
1 -693 0
1 -694 0
1 -695 0
1 -696 0
1 -697 0
1 -698 0
1 -699 0
1 -700 0
1 -701 0
1 -702 0
1 -703 0
1 -704 0
1 -705 0
1 -706 0
1 -707 0
1 -708 0
1 -709 0
1 -710 0
1 -711 0
1 -712 0
1 -713 0
1 -714 0
1 -715 0
1 -716 0
1 -717 0
1 -718 0
1 -719 0
1 -720 0
1 -721 0
1 -722 0
1 -723 0
1 -724 0
1 -725 0
1 -726 0
1 -727 0
1 -728 0
1 -729 0
1 -730 0
1 -731 0
1 -732 0
1 -733 0
1 -734 0
1 -735 0
1 -736 0
1 -737 0
1 -738 0
1 -739 0
1 -740 0
1 -741 0
1 -742 0
1 -743 0
1 -744 0
1 -745 0
1 -746 0
1 -747 0
1 -748 0
1 -749 0
1 -750 0
1 -751 0
1 -752 0
1 -753 0
1 -754 0
1 -755 0
1 -756 0
1 -757 0
1 -758 0
1 -759 0
1 -760 0
1 -761 0
1 -762 0
1 -763 0
1 -764 0
1 -765 0
1 -766 0
1 -767 0
1 -768 0
1 -769 0
1 -770 0
1 -771 0
1 -772 0
1 -773 0
1 -774 0
1 -775 0
1 -776 0
1 -777 0
1 -778 0
1 -779 0
1 -780 0
1 -781 0
1 -782 0
1 -783 0
1 -784 0
1 -785 0
1 -786 0
1 -787 0
1 -788 0
1 -789 0
1 -790 0
1 -791 0
1 -792 0
1 -793 0
1 -794 0
1 -795 0
1 -796 0
1 -797 0
1 -798 0
1 -799 0
1 -800 0
1 -801 0
1 -802 0
1 -803 0
1 -804 0
1 -805 0
1 -806 0
1 -807 0
1 -808 0
1 -809 0
1 -810 0
1 -811 0
1 -812 0
1 -813 0
1 -814 0
1 -815 0
1 -816 0
1 -817 0
1 -818 0
1 -819 0
1 -820 0
1 -821 0
1 -822 0
1 -823 0
1 -824 0
1 -825 0
1 -826 0
1 -827 0
1 -828 0
1 -829 0
1 -830 0
1 -831 0
1 -832 0
1 -833 0
1 -834 0
1 -835 0
1 -836 0
1 -837 0
1 -838 0
1 -839 0
1 -840 0
1 -841 0
1 -842 0
1 -843 0
1 -844 0
1 -845 0
1 -846 0
1 -847 0
1 -848 0
1 -849 0
1 -850 0
1 -851 0
1 -852 0
1 -853 0
1 -854 0
1 -855 0
1 -856 0
1 -857 0
1 -858 0
1 -859 0
1 -860 0
1 -861 0
1 -862 0
1 -863 0
1 -864 0
1 -865 0
1 -866 0
1 -867 0
1 -868 0
1 -869 0
1 -870 0
1 -871 0
1 -872 0
1 -873 0
1 -874 0
1 -875 0
1 -876 0
1 -877 0
1 -878 0
1 -879 0
1 -880 0
1 -881 0
1 -882 0
1 -883 0
1 -884 0
1 -885 0
1 -886 0
1 -887 0
1 -888 0
1 -889 0
1 -890 0
1 -891 0
1 -892 0
1 -893 0
1 -894 0
1 -895 0
1 -896 0
1 -897 0
1 -898 0
1 -899 0
1 -900 0
1 -901 0
1 -902 0
1 -903 0
1 -904 0
1 -905 0
1 -906 0
1 -907 0
1 -908 0
1 -909 0
1 -910 0
1 -911 0
1 -912 0
1 -913 0
1 -914 0
1 -915 0
1 -916 0
1 -917 0
1 -918 0
1 -919 0
1 -920 0
1 -921 0
1 -922 0
1 -923 0
1 -924 0
1 -925 0
1 -926 0
1 -927 0
1 -928 0
1 -929 0
1 -930 0
1 -931 0
1 -932 0
1 -933 0
1 -934 0
1 -935 0
1 -936 0
1 -937 0
1 -938 0
1 -939 0
1 -940 0
1 -941 0
1 -942 0
1 -943 0
1 -944 0
1 -945 0
1 -946 0
1 -947 0
1 -948 0
1 -949 0
1 -950 0
1 -951 0
1 -952 0
1 -953 0
1 -954 0
1 -955 0
1 -956 0
1 -957 0
1 -958 0
1 -959 0
1 -960 0
1 -961 0
1 -962 0
1 -963 0
1 -964 0
1 -965 0
1 -966 0
1 -967 0
1 -968 0
1 -969 0
1 -970 0
1 -971 0
1 -972 0
1 -973 0
1 -974 0
1 -975 0
1 -976 0
1 -977 0
1 -978 0
1 -979 0
1 -980 0
1 -981 0
1 -982 0
1 -983 0
1 -984 0
1 -985 0
1 -986 0
1 -987 0
1 -988 0
1 -989 0
1 -990 0
1 -991 0
1 -992 0
1 -993 0
1 -994 0
1 -995 0
1 -996 0
1 -997 0
1 -998 0
1 -999 0
1 -1000 0
1 -1001 0
1 -1002 0
1 -1003 0
1 -1004 0
1 -1005 0
1 -1006 0
1 -1007 0
1 -1008 0
1 -1009 0
1 -1010 0
1 -1011 0
1 -1012 0
1 -1013 0
1 -1014 0
1 -1015 0
1 -1016 0
1 -1017 0
1 -1018 0
1 -1019 0
1 -1020 0
1 -1021 0
1 -1022 0
1 -1023 0
1 -1024 0
1 -1025 0
1 -1026 0
1 -1027 0
1 -1028 0
1 -1029 0
1 -1030 0
1 -1031 0
1 -1032 0
1 -1033 0
1 -1034 0
1 -1035 0
1 -1036 0
1 -1037 0
1 -1038 0
1 -1039 0
1 -1040 0
1 -1041 0
1 -1042 0
1 -1043 0
1 -1044 0
1 -1045 0
1 -1046 0
1 -1047 0
1 -1048 0
1 -1049 0
1 -1050 0
1 -1051 0
1 -1052 0
1 -1053 0
1 -1054 0
1 -1055 0
1 -1056 0
1 -1057 0
1 -1058 0
1 -1059 0
1 -1060 0
1 -1061 0
1 -1062 0
1 -1063 0
1 -1064 0
1 -1065 0
1 -1066 0
1 -1067 0
1 -1068 0
1 -1069 0
1 -1070 0
1 -1071 0
1 -1072 0
1 -1073 0
1 -1074 0
1 -1075 0
1 -1076 0
1 -1077 0
1 -1078 0
1 -1079 0
1 -1080 0
h 1 4 7 8 37 46 49 52 53 58 61 64 65 352 379 382 385 386 415 424 427 430 431 436 439 442 443 496 499 502 503 532 541 544 547 548 553 556 559 560 0
h 1 5 9 10 38 50 62 70 78 79 82 90 91 353 383 416 428 440 500 533 545 557 613 621 622 682 690 691 694 702 703 730 738 739 799 807 808 811 819 820 0
h 1 6 11 12 39 51 63 94 104 105 106 116 117 354 384 417 429 441 501 534 546 558 847 857 858 940 950 951 952 962 963 964 974 975 1057 1067 1068 1069 1079 1080 0
h 2 4 9 11 40 47 54 56 59 66 68 73 85 355 380 387 389 418 425 432 434 437 444 446 497 504 506 535 542 549 551 554 561 563 616 685 697 733 802 814 0
h 2 5 7 12 41 71 74 76 81 83 86 88 93 356 419 536 614 617 619 624 683 686 688 693 695 698 700 705 731 734 736 741 800 803 805 810 812 815 817 822 0
h 2 6 8 10 42 75 87 95 101 103 107 113 115 357 420 537 618 687 699 735 804 816 848 854 856 941 947 949 953 959 961 965 971 973 1058 1064 1066 1070 1076 1078 0
h 3 4 10 12 43 48 55 57 60 67 69 97 109 358 381 388 390 421 426 433 435 438 445 447 498 505 507 538 543 550 552 555 562 564 850 943 955 967 1060 1072 0
h 3 5 8 11 44 72 77 80 84 89 92 98 110 359 422 539 615 620 623 684 689 692 696 701 704 732 737 740 801 806 809 813 818 821 851 944 956 968 1061 1073 0
h 3 6 7 9 45 96 99 100 102 108 111 112 114 360 423 540 849 852 853 855 942 945 946 948 954 957 958 960 966 969 970 972 1059 1062 1063 1065 1071 1074 1075 1077 0
h 13 16 19 20 37 70 73 76 77 94 97 100 101 361 391 394 397 398 448 451 454 455 472 475 478 479 508 511 514 515 565 568 571 572 589 592 595 596 649 766 0
h 13 17 21 22 38 46 54 55 74 98 106 114 115 362 395 452 476 512 569 593 625 633 634 650 658 666 667 718 726 727 742 750 751 767 775 783 784 835 843 844 0
h 13 18 23 24 39 58 68 69 75 82 92 93 99 363 396 453 477 513 570 594 651 768 859 869 870 904 914 915 928 938 939 976 986 987 1021 1031 1032 1045 1055 1056 0
h 14 16 21 23 40 49 71 78 80 95 102 104 109 364 392 399 401 449 456 458 473 480 482 509 516 518 566 573 575 590 597 599 628 652 661 721 745 769 778 838 0
h 14 17 19 24 41 47 50 52 57 107 110 112 117 365 626 629 631 636 653 659 662 664 669 719 722 724 729 743 746 748 753 770 776 779 781 786 836 839 841 846 0
h 14 18 20 22 42 51 59 65 67 83 89 91 111 366 630 654 663 723 747 771 780 840 860 866 868 905 911 913 929 935 937 977 983 985 1022 1028 1030 1046 1052 1054 0
h 15 16 22 24 43 61 72 79 81 85 96 103 105 367 393 400 402 450 457 459 474 481 483 510 517 519 567 574 576 591 598 600 655 772 862 907 931 979 1024 1048 0
h 15 17 20 23 44 48 53 56 62 86 108 113 116 368 627 632 635 656 660 665 668 720 725 728 744 749 752 773 777 782 785 837 842 845 863 908 932 980 1025 1049 0
h 15 18 19 21 45 60 63 64 66 84 87 88 90 369 657 774 861 864 865 867 906 909 910 912 930 933 934 936 978 981 982 984 1023 1026 1027 1029 1047 1050 1051 1053 0
h 25 28 31 32 37 82 85 88 89 106 109 112 113 370 403 406 409 410 460 463 466 467 484 487 490 491 520 523 526 527 577 580 583 584 601 604 607 608 883 1000 0
h 25 29 33 34 38 58 66 67 86 94 102 103 110 371 407 464 488 524 581 605 637 645 646 670 678 679 706 714 715 754 762 763 787 795 796 823 831 832 884 1001 0
h 25 30 35 36 39 46 56 57 70 80 81 87 111 372 408 465 489 525 582 606 871 881 882 885 892 902 903 916 926 927 988 998 999 1002 1009 1019 1020 1033 1043 1044 0
h 26 28 33 35 40 61 83 90 92 97 107 114 116 373 404 411 413 461 468 470 485 492 494 521 528 530 578 585 587 602 609 611 640 673 709 757 790 826 886 1003 0
h 26 29 31 36 41 59 62 64 69 95 98 100 105 374 638 641 643 648 671 674 676 681 707 710 712 717 755 758 760 765 788 791 793 798 824 827 829 834 887 1004 0
h 26 30 32 34 42 47 53 55 63 71 77 79 99 375 642 675 711 759 792 828 872 878 880 888 893 899 901 917 923 925 989 995 997 1005 1010 1016 1018 1034 1040 1042 0
h 27 28 34 36 43 49 73 84 91 93 108 115 117 376 405 412 414 462 469 471 486 493 495 522 529 531 579 586 588 603 610 612 874 889 895 919 991 1006 1012 1036 0
h 27 29 32 35 44 50 60 65 68 74 96 101 104 377 639 644 647 672 677 680 708 713 716 756 761 764 789 794 797 825 830 833 875 890 896 920 992 1007 1013 1037 0
h 27 30 31 33 45 48 51 52 54 72 75 76 78 378 873 876 877 879 891 894 897 898 900 918 921 922 924 990 993 994 996 1008 1011 1014 1015 1017 1035 1038 1039 1041 0
h 118 121 124 125 154 163 166 169 170 175 178 181 182 352 613 616 619 620 649 658 661 664 665 670 673 676 677 847 850 853 854 883 892 895 898 899 904 907 910 911 0
h 118 122 126 127 155 167 179 187 195 196 199 207 208 353 379 387 388 448 456 457 460 468 469 617 650 662 674 851 884 896 908 964 972 973 1033 1041 1042 1045 1053 1054 0
h 118 123 128 129 156 168 180 211 221 222 223 233 234 354 496 506 507 589 599 600 601 611 612 618 651 663 675 730 740 741 823 833 834 835 845 846 852 885 897 909 0
h 119 121 126 128 157 164 171 173 176 183 185 190 202 355 382 451 463 614 621 623 652 659 666 668 671 678 680 848 855 857 886 893 900 902 905 912 914 967 1036 1048 0
h 119 122 124 129 158 188 191 193 198 200 203 205 210 356 380 383 385 390 449 452 454 459 461 464 466 471 653 887 965 968 970 975 1034 1037 1039 1044 1046 1049 1051 1056 0
h 119 123 125 127 159 192 204 212 218 220 224 230 232 357 384 453 465 497 503 505 590 596 598 602 608 610 654 731 737 739 824 830 832 836 842 844 888 969 1038 1050 0
h 120 121 127 129 160 165 172 174 177 184 186 214 226 358 499 592 604 615 622 624 655 660 667 669 672 679 681 733 826 838 849 856 858 889 894 901 903 906 913 915 0
h 120 122 125 128 161 189 194 197 201 206 209 215 227 359 381 386 389 450 455 458 462 467 470 500 593 605 656 734 827 839 890 966 971 974 1035 1040 1043 1047 1052 1055 0
h 120 123 124 126 162 213 216 217 219 225 228 229 231 360 498 501 502 504 591 594 595 597 603 606 607 609 657 732 735 736 738 825 828 829 831 837 840 841 843 891 0
h 130 133 136 137 154 187 190 193 194 211 214 217 218 361 415 625 628 631 632 682 685 688 689 706 709 712 713 859 862 865 866 916 919 922 923 940 943 946 947 1000 0
h 130 134 138 139 155 163 171 172 191 215 223 231 232 362 391 399 400 416 424 432 433 484 492 493 629 686 710 863 920 944 976 984 985 1001 1009 1017 1018 1069 1077 1078 0
h 130 135 140 141 156 175 185 186 192 199 209 210 216 363 417 508 518 519 553 563 564 577 587 588 630 687 711 742 752 753 787 797 798 811 821 822 864 921 945 1002 0
h 131 133 138 140 157 166 188 195 197 212 219 221 226 364 394 418 427 487 626 633 635 683 690 692 707 714 716 860 867 869 917 924 926 941 948 950 979 1003 1012 1072 0
h 131 134 136 141 158 164 167 169 174 224 227 229 234 365 392 395 397 402 419 425 428 430 435 485 488 490 495 977 980 982 987 1004 1010 1013 1015 1020 1070 1073 1075 1080 0
h 131 135 137 139 159 168 176 182 184 200 206 208 228 366 396 420 429 489 509 515 517 554 560 562 578 584 586 743 749 751 788 794 796 812 818 820 981 1005 1014 1074 0
h 132 133 139 141 160 178 189 196 198 202 213 220 222 367 421 511 556 580 627 634 636 684 691 693 708 715 717 745 790 814 861 868 870 918 925 927 942 949 951 1006 0
h 132 134 137 140 161 165 170 173 179 203 225 230 233 368 393 398 401 422 426 431 434 486 491 494 512 557 581 746 791 815 978 983 986 1007 1011 1016 1019 1071 1076 1079 0
h 132 135 136 138 162 177 180 181 183 201 204 205 207 369 423 510 513 514 516 555 558 559 561 579 582 583 585 744 747 748 750 789 792 793 795 813 816 817 819 1008 0
h 142 145 148 149 154 199 202 205 206 223 226 229 230 370 532 637 640 643 644 694 697 700 701 718 721 724 725 766 871 874 877 878 928 931 934 935 952 955 958 959 0
h 142 146 150 151 155 175 183 184 203 211 219 220 227 371 403 411 412 436 444 445 472 480 481 533 641 698 722 767 875 932 956 988 996 997 1021 1029 1030 1057 1065 1066 0
h 142 147 152 153 156 163 173 174 187 197 198 204 228 372 520 530 531 534 541 551 552 565 575 576 642 699 723 754 764 765 768 775 785 786 799 809 810 876 933 957 0
h 143 145 150 152 157 178 200 207 209 214 224 231 233 373 406 439 475 535 638 645 647 695 702 704 719 726 728 769 872 879 881 929 936 938 953 960 962 991 1024 1060 0
h 143 146 148 153 158 176 179 181 186 212 215 217 222 374 404 407 409 414 437 440 442 447 473 476 478 483 536 770 989 992 994 999 1022 1025 1027 1032 1058 1061 1063 1068 0
h 143 147 149 151 159 164 170 172 180 188 194 196 216 375 408 441 477 521 527 529 537 542 548 550 566 572 574 755 761 763 771 776 782 784 800 806 808 993 1026 1062 0
h 144 145 151 153 160 166 190 201 208 210 225 232 234 376 523 538 544 568 639 646 648 696 703 705 720 727 729 757 772 778 802 873 880 882 930 937 939 954 961 963 0
h 144 146 149 152 161 167 177 182 185 191 213 218 221 377 405 410 413 438 443 446 474 479 482 524 539 545 569 758 773 779 803 990 995 998 1023 1028 1031 1059 1064 1067 0
h 144 147 148 150 162 165 168 169 171 189 192 193 195 378 522 525 526 528 540 543 546 547 549 567 570 571 573 756 759 760 762 774 777 780 781 783 801 804 805 807 0
h 235 238 241 242 271 280 283 286 287 292 295 298 299 352 730 733 736 737 766 775 778 781 782 787 790 793 794 964 967 970 971 1000 1009 1012 1015 1016 1021 1024 1027 1028 0
h 235 239 243 244 272 284 296 304 312 313 316 324 325 353 496 504 505 565 573 574 577 585 586 734 767 779 791 847 855 856 916 924 925 928 936 937 968 1001 1013 1025 0
h 235 240 245 246 273 285 297 328 338 339 340 350 351 354 379 389 390 472 482 483 484 494 495 613 623 624 706 716 717 718 728 729 735 768 780 792 969 1002 1014 1026 0
h 236 238 243 245 274 281 288 290 293 300 302 307 319 355 499 568 580 731 738 740 769 776 783 785 788 795 797 850 919 931 965 972 974 1003 1010 1017 1019 1022 1029 1031 0
h 236 239 241 246 275 305 308 310 315 317 320 322 327 356 497 500 502 507 566 569 571 576 578 581 583 588 770 848 851 853 858 917 920 922 927 929 932 934 939 1004 0
h 236 240 242 244 276 309 321 329 335 337 341 347 349 357 380 386 388 473 479 481 485 491 493 501 570 582 614 620 622 707 713 715 719 725 727 771 852 921 933 1005 0
h 237 238 244 246 277 282 289 291 294 301 303 331 343 358 382 475 487 616 709 721 732 739 741 772 777 784 786 789 796 798 966 973 975 1006 1011 1018 1020 1023 1030 1032 0
h 237 239 242 245 278 306 311 314 318 323 326 332 344 359 383 476 488 498 503 506 567 572 575 579 584 587 617 710 722 773 849 854 857 918 923 926 930 935 938 1007 0
h 237 240 241 243 279 330 333 334 336 342 345 346 348 360 381 384 385 387 474 477 478 480 486 489 490 492 615 618 619 621 708 711 712 714 720 723 724 726 774 1008 0
h 247 250 253 254 271 304 307 310 311 328 331 334 335 361 532 742 745 748 749 799 802 805 806 823 826 829 830 883 976 979 982 983 1033 1036 1039 1040 1057 1060 1063 1064 0
h 247 251 255 256 272 280 288 289 308 332 340 348 349 362 508 516 517 533 541 549 550 601 609 610 746 803 827 859 867 868 884 892 900 901 952 960 961 980 1037 1061 0
h 247 252 257 258 273 292 302 303 309 316 326 327 333 363 391 401 402 436 446 447 460 470 471 534 625 635 636 670 680 681 694 704 705 747 804 828 885 981 1038 1062 0
h 248 250 255 257 274 283 305 312 314 329 336 338 343 364 511 535 544 604 743 750 752 800 807 809 824 831 833 862 886 895 955 977 984 986 1034 1041 1043 1058 1065 1067 0
h 248 251 253 258 275 281 284 286 291 341 344 346 351 365 509 512 514 519 536 542 545 547 552 602 605 607 612 860 863 865 870 887 893 896 898 903 953 956 958 963 0
h 248 252 254 256 276 285 293 299 301 317 323 325 345 366 392 398 400 437 443 445 461 467 469 513 537 546 606 626 632 634 671 677 679 695 701 703 864 888 897 957 0
h 249 250 256 258 277 295 306 313 315 319 330 337 339 367 394 439 463 538 628 673 697 744 751 753 801 808 810 825 832 834 889 978 985 987 1035 1042 1044 1059 1066 1068 0
h 249 251 254 257 278 282 287 290 296 320 342 347 350 368 395 440 464 510 515 518 539 543 548 551 603 608 611 629 674 698 861 866 869 890 894 899 902 954 959 962 0
h 249 252 253 255 279 294 297 298 300 318 321 322 324 369 393 396 397 399 438 441 442 444 462 465 466 468 540 627 630 631 633 672 675 676 678 696 699 700 702 891 0
h 259 262 265 266 271 316 319 322 323 340 343 346 347 370 415 649 754 757 760 761 811 814 817 818 835 838 841 842 988 991 994 995 1045 1048 1051 1052 1069 1072 1075 1076 0
h 259 263 267 268 272 292 300 301 320 328 336 337 344 371 416 520 528 529 553 561 562 589 597 598 650 758 815 839 871 879 880 904 912 913 940 948 949 992 1049 1073 0
h 259 264 269 270 273 280 290 291 304 314 315 321 345 372 403 413 414 417 424 434 435 448 458 459 637 647 648 651 658 668 669 682 692 693 759 816 840 993 1050 1074 0
h 260 262 267 269 274 295 317 324 326 331 341 348 350 373 418 523 556 592 652 755 762 764 812 819 821 836 843 845 874 907 943 989 996 998 1046 1053 1055 1070 1077 1079 0
h 260 263 265 270 275 293 296 298 303 329 332 334 339 374 419 521 524 526 531 554 557 559 564 590 593 595 600 653 872 875 877 882 905 908 910 915 941 944 946 951 0
h 260 264 266 268 276 281 287 289 297 305 311 313 333 375 404 410 412 420 425 431 433 449 455 457 525 558 594 638 644 646 654 659 665 667 683 689 691 876 909 945 0
h 261 262 268 270 277 283 307 318 325 327 342 349 351 376 406 421 427 451 640 655 661 685 756 763 765 813 820 822 837 844 846 990 997 999 1047 1054 1056 1071 1078 1080 0
h 261 263 266 269 278 284 294 299 302 308 330 335 338 377 407 422 428 452 522 527 530 555 560 563 591 596 599 641 656 662 686 873 878 881 906 911 914 942 947 950 0
h 261 264 265 267 279 282 285 286 288 306 309 310 312 378 405 408 409 411 423 426 429 430 432 450 453 454 456 639 642 643 645 657 660 663 664 666 684 687 688 690 0
